84
18
0 18 23 24 26 28 31 32 33 35 36 37 38 39 41 44 45 46 47 49 51 54 56 58 61 62 63 65 67 68 69 70 72 76 80 81 83
1 18 19 23 24 26 27 29 32 33 35 36 38 41 42 44 45 47 49 50 51 52 53 55 56 58 60 61 62 63 64 65 67 69 70 72 74 76 77 83
2 18 23 24 27 29 31 32 33 35 36 38 39 41 42 45 46 47 49 50 51 53 54 56 60 62 63 64 65 66 69 70 71 72 75 77 78 79 80 83
3 18 20 22 23 26 27 29 32 33 36 38 40 41 42 43 44 46 49 51 54 56 59 60 61 62 63 65 72 73 76 77 79 80 81 83
4 18 19 26 27 28 29 33 38 39 41 42 44 45 47 51 54 56 58 60 62 63 64 65 66 67 69 70 72 73 75 76 81 82
5 18 19 23 25 35 39 42 45 47 48 49 51 57 58 60 61 63 65 67 69 70 72 73 77 80
6 19 24 29 32 33 34 36 38 39 40 41 42 45 47 48 49 51 53 54 56 57 58 60 61 62 64 66 70 71 76 79 80 81 83
7 19 23 27 29 30 32 35 38 40 41 42 47 48 53 54 56 60 61 63 65 67 69 72 76 77 81 82 83
8 27 28 35 37 39 41 42 51 53 57 59 62 64 67 68 69 70 75 76 80 81 83
9 24 27 31 33 39 40 42 44 46 48 56 57 58 59 60 62 63 65 67 68 71 72 80
10 18 24 26 27 29 31 33 35 41 42 43 47 48 49 50 53 56 60 61 62 64 65 66 68 69 71 75 80 81
11 18 21 22 26 44 48 60 61 64 65 74 76 77 79 81
12 19 22 33 36 38 39 42 47 48 49 53 54 57 59 62 68 77 78 80
13 19 46 49 61 65 69 72 82 83
14 27 38 43 44 45 47 63 65 74 78 79 80 82
15 26 36 37 43 44 46 51 55 59 60 62 68 72 74
16 21 26 30 59 76
17 23 30 38
